(set-info :source |printed by MathSAT|)
(declare-fun |.x{10}| () (Array Int Int))
(declare-fun |.x{13}| () (Array Int Int))
(declare-fun |.x{11}| () Int)
(declare-fun |.x{14}| () Int)
(declare-fun |.x{12}| () Int)
(declare-fun |.x{15}| () Int)
(declare-fun |.loc{2}| () Bool)
(declare-fun |.loc{3}| () Bool)
(declare-fun |.x{25}| () Int)
(define-fun .def_10 () Int (! |.x{11}| :next |.x{14}|))
(define-fun .def_49 () Bool (= .def_10 0))
(define-fun .def_14 () Bool (! |.loc{2}| :next |.loc{3}|))
(define-fun .def_24 () Bool (not .def_14))
(define-fun .def_50 () Bool (! (and .def_24 .def_49) :init true))
(define-fun .def_12 () Int (! |.x{12}| :next |.x{15}|))
(define-fun .def_47 () Bool (= .def_12 |.x{15}|))
(define-fun .def_8 () (Array Int Int) (! |.x{10}| :next |.x{13}|))
(define-fun .def_40 () Bool (= .def_8 |.x{13}|))
(define-fun .def_17 () Bool (<= .def_12 .def_10))
(define-fun .def_41 () Bool (and .def_17 .def_40))
(define-fun .def_39 () Bool (= |.x{14}| 0))
(define-fun .def_42 () Bool (and .def_39 .def_41))
(define-fun .def_43 () Bool (and .def_24 .def_42))
(define-fun .def_31 () Int (select .def_8 .def_10))
(define-fun .def_33 () Int (+ .def_31 (- 1)))
(define-fun .def_34 () (Array Int Int) (store .def_8 .def_10 .def_33))
(define-fun .def_35 () Bool (= |.x{13}| .def_34))
(define-fun .def_18 () Bool (not .def_17))
(define-fun .def_36 () Bool (and .def_18 .def_35))
(define-fun .def_37 () Bool (and .def_14 .def_36))
(define-fun .def_27 () Int (* (- 1) |.x{14}|))
(define-fun .def_28 () Int (+ .def_10 .def_27))
(define-fun .def_29 () Bool (= .def_28 (- 1)))
(define-fun .def_38 () Bool (and .def_29 .def_37))
(define-fun .def_44 () Bool (or .def_38 .def_43))
(define-fun .def_45 () Bool (and |.loc{3}| .def_44))
(define-fun .def_21 () (Array Int Int) (store .def_8 .def_10 0))
(define-fun .def_22 () Bool (= |.x{13}| .def_21))
(define-fun .def_16 () Bool (not |.loc{3}|))
(define-fun .def_19 () Bool (and .def_16 .def_18))
(define-fun .def_23 () Bool (and .def_19 .def_22))
(define-fun .def_25 () Bool (and .def_23 .def_24))
(define-fun .def_30 () Bool (and .def_25 .def_29))
(define-fun .def_46 () Bool (or .def_30 .def_45))
(define-fun .def_48 () Bool (! (and .def_46 .def_47) :trans true))
(define-fun .def_51 () Int (! |.x{25}| :next |.xpv{1}|))
(define-fun .def_58 () Bool (<= .def_51 0))
(define-fun .def_59 () Bool (not .def_58))
(define-fun .def_60 () Bool (and .def_17 .def_59))
(define-fun .def_56 () Bool (<= .def_12 .def_51))
(define-fun .def_57 () Bool (not .def_56))
(define-fun .def_61 () Bool (and .def_57 .def_60))
(define-fun .def_52 () Int (select .def_8 .def_51))
(define-fun .def_54 () Bool (<= 1 .def_52))
(define-fun .def_55 () Bool (not .def_54))
(define-fun .def_62 () Bool (and .def_55 .def_61))
(define-fun .def_63 () Bool (and .def_14 .def_62))
(define-fun .def_65 () Bool (! (not .def_63) :invar-property 0))
(assert true)
